experiment/data/hgs-res/Vrp-Set-B-n67/Vrp-Set-B-n67-hgs/0.hgs1.vrp
NAME : 0
COMMENT : CVRP Instance
TYPE : CVRP
DIMENSION : 67
EDGE_WEIGHT_TYPE : EUC_2D
CAPACITY : 100
NODE_COORD_SECTION
1	58.0	90.0
2	5.0	66.0
3	34.0	98.0
4	93.0	17.0
5	23.0	67.0
6	71.0	91.0
7	20.0	39.0
8	20.0	86.0
9	7.0	99.0
10	72.0	78.0
11	27.0	90.0
12	14.0	72.0
13	72.0	101.0
14	72.0	96.0
15	19.0	73.0
16	76.0	95.0
17	30.0	92.0
18	30.0	87.0
19	40.0	104.0
20	7.0	73.0
21	7.0	76.0
22	79.0	86.0
23	82.0	105.0
24	12.0	104.0
25	21.0	93.0
26	77.0	85.0
27	37.0	101.0
28	28.0	91.0
29	72.0	95.0
30	22.0	92.0
31	98.0	18.0
32	42.0	107.0
33	16.0	101.0
34	41.0	100.0
35	23.0	41.0
36	8.0	70.0
37	22.0	45.0
38	15.0	103.0
39	27.0	88.0
40	25.0	47.0
41	26.0	42.0
42	29.0	93.0
43	25.0	45.0
44	29.0	91.0
45	26.0	44.0
46	78.0	109.0
47	27.0	69.0
48	40.0	99.0
49	74.0	81.0
50	8.0	69.0
51	18.0	74.0
52	24.0	96.0
53	82.0	107.0
54	27.0	46.0
55	81.0	95.0
56	79.0	95.0
57	76.0	95.0
58	97.0	19.0
59	74.0	98.0
60	21.0	94.0
61	40.0	0.0
62	100.0	23.0
63	99.0	24.0
64	73.0	85.0
65	26.0	40.0
66	16.0	103.0
67	33.0	94.0
DEMAND_SECTION
1	0
2	12
3	12
4	10
5	2
6	23
7	15
8	16
9	26
10	12
11	12
12	26
13	10
14	22
15	4
16	16
17	8
18	23
19	2
20	24
21	12
22	24
23	4
24	19
25	21
26	7
27	15
28	14
29	18
30	7
31	20
32	18
33	2
34	21
35	21
36	3
37	5
38	20
39	16
40	25
41	3
42	10
43	18
44	4
45	14
46	6
47	13
48	25
49	17
50	15
51	19
52	21
53	15
54	25
55	7
56	4
57	16
58	24
59	16
60	10
61	15
62	14
63	14
64	2
65	1
66	9
67	3
DEPOT_SECTION
1
-1
EOF
