experiment/data/hgs-res/Vrp-Set-B-n67/Vrp-Set-B-n67-hgs/0.hgs1.tour
Route #1: 46 11 50 7 27 43 16
Route #2: 39 36 1 49 35 19 20 14
Route #3: 4 42 34 6 64 40 44 53
Route #4: 60 3 57 30 61 62
Route #5: 9 48 21 25 63
Route #6: 13 28 5
Route #7: 58 56 15 55 54 22 52 45 12
Route #8: 33 47 2 26 18 31
Route #9: 66 51 32 8 23 37 65
Route #10: 41 59 24 29 10 38 17
Cost 1039.27
